Running MiniSat on FULL_RUN_MINISAT\83b330c934d6dd35d56e1b1ca3638b3c-j3037_1_mdd_b.cnf... 
============================[ Problem Statistics ]=============================
|                                                                             |
|  Number of variables:         21288                                         |
|  Number of clauses:           87245                                         |
|  Parse time:                   0.17 s                                       |
|                                                                             |
============================[ Search Statistics ]==============================
| Conflicts |          ORIGINAL         |          LEARNT          | Progress |
|           |    Vars  Clauses Literals |    Limit  Clauses Lit/Cl |          |
===============================================================================
|       100 |   20445    86506   210210 |    31718      100     28 |  3.960 % |
|       250 |   20445    86506   210210 |    34890      250     23 |  3.960 % |
|       475 |   20445    86506   210210 |    38379      475     26 |  3.960 % |
|       812 |   20445    86506   210210 |    42217      812     24 |  3.960 % |
|      1318 |   20445    86506   210210 |    46439     1318     24 |  3.960 % |
|      2077 |   20445    86506   210210 |    51083     2077     23 |  3.960 % |
|      3216 |   20445    86506   210210 |    56191     3216     24 |  3.960 % |
|      4924 |   20445    86506   210210 |    61811     4924     26 |  3.960 % |
|      7486 |   20445    86506   210210 |    67992     7486     25 |  3.960 % |
|     11330 |   20445    86506   210210 |    74791    11330     26 |  3.960 % |
|     17096 |   20445    86506   210210 |    82270    17096     27 |  3.960 % |
|     25745 |   20445    86506   210210 |    90497    25745     26 |  3.960 % |
Timeout reached. Terminating MiniSat... 
Finished MiniSat on FULL_RUN_MINISAT\94dd280b1562ee7dae44b303b8fed233-Break_unsat_18_31.xml.cnf 
